c Result of efficient AIG-to-CNF conversion using package CNF
p cnf 451 1561
-2 -3 245 335 0
-2 85 245 335 0
2 -335 0
2 -245 0
2 3 -85 0
-3 4 43 0
3 -4 0
3 -43 0
4 -446 5 -31 0
4 446 5 -16 0
-4 -5 0
-4 -446 31 0
-4 446 16 0
-5 6 12 14 15 0
5 -15 0
5 -6 0
5 -14 0
5 -12 0
-6 443 444 7 9 0
6 -443 0
6 -9 0
6 -7 0
6 -444 0
-7 435 441 442 8 0
7 -8 0
7 -442 0
7 -435 0
7 -441 0
-8 439 440 445 0
8 -439 0
8 -445 0
8 -440 0
-9 431 432 10 11 0
9 -431 0
9 -11 0
9 -10 0
9 -432 0
-10 436 437 438 0
10 -436 0
10 -438 0
10 -437 0
-11 427 428 433 434 0
11 -434 0
11 -433 0
11 -427 0
11 -428 0
-12 425 429 430 13 0
12 -13 0
12 -430 0
12 -425 0
12 -429 0
-13 423 424 0
13 -423 0
13 -424 0
-14 419 426 0
14 -419 0
14 -426 0
-15 420 421 422 0
15 -420 0
15 -422 0
15 -421 0
-16 447 17 0
-16 -447 24 0
16 -447 -24 0
16 447 -17 0
-17 448 21 0
-17 -448 18 0
17 -448 -18 0
17 448 -21 0
18 449 -19 0
18 -449 -20 0
-18 -449 20 0
-18 449 19 0
19 -396 -450 0
19 -395 450 0
-19 395 450 0
-19 396 -450 0
20 -398 -450 0
20 -397 450 0
-20 397 450 0
-20 398 -450 0
21 449 -22 0
21 -449 -23 0
-21 -449 23 0
-21 449 22 0
22 -392 -450 0
22 -391 450 0
-22 391 450 0
-22 392 -450 0
23 -394 -450 0
23 -393 450 0
-23 393 450 0
-23 394 -450 0
24 448 -25 0
24 -448 -28 0
-24 -448 28 0
-24 448 25 0
25 449 -26 0
25 -449 -27 0
-25 -449 27 0
-25 449 26 0
26 -400 -450 0
26 -399 450 0
-26 399 450 0
-26 400 -450 0
27 -402 -450 0
27 -401 450 0
-27 401 450 0
-27 402 -450 0
28 449 -29 0
28 -449 -30 0
-28 -449 30 0
-28 449 29 0
29 -404 -450 0
29 -403 450 0
-29 403 450 0
-29 404 -450 0
30 -406 -450 0
30 -405 450 0
-30 405 450 0
-30 406 -450 0
31 447 -32 0
31 -447 -39 0
-31 -447 39 0
-31 447 32 0
32 448 -33 0
32 -448 -36 0
-32 -448 36 0
-32 448 33 0
33 449 -34 0
33 -449 -35 0
-33 -449 35 0
-33 449 34 0
34 -408 -450 0
34 -407 450 0
-34 407 450 0
-34 408 -450 0
35 -410 -450 0
35 -409 450 0
-35 409 450 0
-35 410 -450 0
36 449 -37 0
36 -449 -38 0
-36 -449 38 0
-36 449 37 0
37 -412 -450 0
37 -411 450 0
-37 411 450 0
-37 412 -450 0
38 -414 -450 0
38 -413 450 0
-38 413 450 0
-38 414 -450 0
39 448 -40 0
-39 -448 0
-39 40 0
40 449 -41 0
40 -449 -42 0
-40 -449 42 0
-40 449 41 0
41 -416 -450 0
41 -415 450 0
-41 415 450 0
-41 416 -450 0
42 -418 -450 0
42 -417 450 0
-42 417 450 0
-42 418 -450 0
-43 44 58 0
43 -44 0
43 -58 0
44 -446 5 -52 0
44 446 5 -45 0
-44 -5 0
-44 -446 52 0
-44 446 45 0
-45 447 46 0
-45 -447 49 0
45 -447 -49 0
45 447 -46 0
-46 448 48 0
-46 -448 47 0
46 -448 -47 0
46 448 -48 0
47 449 -20 0
47 -449 -26 0
-47 -449 26 0
-47 449 20 0
48 -449 -19 0
48 449 -23 0
-48 449 23 0
-48 -449 19 0
49 448 -50 0
49 -448 -51 0
-49 -448 51 0
-49 448 50 0
50 449 -27 0
50 -449 -29 0
-50 -449 29 0
-50 449 27 0
51 449 -30 0
51 -449 -34 0
-51 -449 34 0
-51 449 30 0
52 447 -53 0
52 -447 -56 0
-52 -447 56 0
-52 447 53 0
53 448 -54 0
53 -448 -55 0
-53 -448 55 0
-53 448 54 0
54 449 -35 0
54 -449 -37 0
-54 -449 37 0
-54 449 35 0
55 449 -38 0
55 -449 -41 0
-55 -449 41 0
-55 449 38 0
56 448 -57 0
-56 -448 0
-56 57 0
57 -417 449 450 0
57 -418 449 -450 0
-57 -449 0
-57 418 -450 0
-57 417 450 0
58 -446 5 -74 0
58 446 5 -59 0
-58 -5 0
-58 -446 74 0
-58 446 59 0
-59 447 60 0
-59 -447 67 0
59 -447 -67 0
59 447 -60 0
-60 448 64 0
-60 -448 61 0
60 -448 -61 0
60 448 -64 0
61 449 -62 0
61 -449 -63 0
-61 -449 63 0
-61 449 62 0
62 -397 -450 0
62 -396 450 0
-62 396 450 0
-62 397 -450 0
63 -399 -450 0
63 -398 450 0
-63 398 450 0
-63 399 -450 0
64 449 -65 0
64 -449 -66 0
-64 -449 66 0
-64 449 65 0
65 -393 -450 0
65 -392 450 0
-65 392 450 0
-65 393 -450 0
66 -395 -450 0
66 -394 450 0
-66 394 450 0
-66 395 -450 0
67 448 -68 0
67 -448 -71 0
-67 -448 71 0
-67 448 68 0
68 449 -69 0
68 -449 -70 0
-68 -449 70 0
-68 449 69 0
69 -401 -450 0
69 -400 450 0
-69 400 450 0
-69 401 -450 0
70 -403 -450 0
70 -402 450 0
-70 402 450 0
-70 403 -450 0
71 449 -72 0
71 -449 -73 0
-71 -449 73 0
-71 449 72 0
72 -405 -450 0
72 -404 450 0
-72 404 450 0
-72 405 -450 0
73 -407 -450 0
73 -406 450 0
-73 406 450 0
-73 407 -450 0
74 447 -75 0
74 -447 -82 0
-74 -447 82 0
-74 447 75 0
75 448 -76 0
75 -448 -79 0
-75 -448 79 0
-75 448 76 0
76 449 -77 0
76 -449 -78 0
-76 -449 78 0
-76 449 77 0
77 -409 -450 0
77 -408 450 0
-77 408 450 0
-77 409 -450 0
78 -411 -450 0
78 -410 450 0
-78 410 450 0
-78 411 -450 0
79 449 -80 0
79 -449 -81 0
-79 -449 81 0
-79 449 80 0
80 -413 -450 0
80 -412 450 0
-80 412 450 0
-80 413 -450 0
81 -415 -450 0
81 -414 450 0
-81 414 450 0
-81 415 -450 0
82 448 -83 0
-82 -448 0
-82 83 0
83 449 -84 0
83 -418 -449 450 0
-83 449 84 0
-83 -449 -450 0
-83 418 -449 0
84 -417 -450 0
84 -416 450 0
-84 416 450 0
-84 417 -450 0
-85 99 200 211 0
-85 -86 99 200 0
85 -200 0
85 -99 0
85 86 -211 0
86 446 5 -92 0
86 -446 5 -87 0
-86 -5 0
-86 446 92 0
-86 -446 87 0
87 447 -88 0
87 -447 -91 0
-87 -447 91 0
-87 447 88 0
88 448 -89 0
88 -448 -90 0
-88 -448 90 0
-88 448 89 0
89 449 -78 0
89 -449 -80 0
-89 -449 80 0
-89 449 78 0
90 449 -81 0
90 -449 -84 0
-90 -449 84 0
-90 449 81 0
91 -418 448 449 450 0
-91 -450 0
-91 -449 0
-91 418 0
-91 -448 0
-92 447 93 0
-92 -447 96 0
92 -447 -96 0
92 447 -93 0
-93 -448 95 0
-93 448 94 0
93 448 -94 0
93 -448 -95 0
94 -449 -62 0
94 449 -66 0
-94 449 66 0
-94 -449 62 0
95 449 -63 0
95 -449 -69 0
-95 -449 69 0
-95 449 63 0
96 448 -97 0
96 -448 -98 0
-96 -448 98 0
-96 448 97 0
97 449 -70 0
97 -449 -72 0
-97 -449 72 0
-97 449 70 0
98 449 -73 0
98 -449 -77 0
-98 -449 77 0
-98 449 73 0
99 100 -191 0
99 100 -141 159 0
-99 -100 0
-99 141 191 0
-99 -159 191 0
-100 101 116 0
100 -101 0
100 -116 0
-101 102 107 108 0
101 -108 0
101 -107 0
101 -102 0
102 103 104 -106 0
102 -447 103 104 0
-102 -103 0
-102 -104 0
-102 447 106 0
-103 446 5 0
103 -446 0
103 -5 0
104 -447 105 0
-104 447 0
-104 -105 0
105 448 -36 0
105 -448 -40 0
-105 -448 40 0
-105 448 36 0
106 448 -28 0
106 -448 -33 0
-106 -448 33 0
-106 448 28 0
107 103 -87 0
-107 -103 0
-107 87 0
-108 109 113 0
108 -109 0
108 -113 0
109 447 103 -111 0
109 103 -110 -111 0
-109 -103 0
-109 111 0
-109 -447 110 0
110 448 -55 0
110 -448 -57 0
-110 -448 57 0
-110 448 55 0
-111 447 112 0
111 -447 0
111 -112 0
112 448 -51 0
112 -448 -54 0
-112 -448 54 0
-112 448 51 0
113 447 103 -115 0
113 -447 103 -114 0
-113 -103 0
-113 -447 114 0
-113 447 115 0
114 448 -79 0
114 -448 -83 0
-114 -448 83 0
-114 448 79 0
115 448 -71 0
115 -448 -76 0
-115 -448 76 0
-115 448 71 0
-116 117 132 0
116 -117 0
116 -132 0
117 -446 5 -129 0
117 446 5 -118 0
-117 -5 0
-117 -446 129 0
-117 446 118 0
118 -119 -122 0
118 -120 -122 0
118 447 -122 0
-118 122 0
-118 -447 119 120 0
119 448 -47 0
119 -448 -50 0
-119 -448 50 0
-119 448 47 0
120 -448 -25 0
120 448 -121 0
120 -448 -68 0
-120 448 121 0
-120 -448 25 68 0
-121 18 61 0
121 -18 0
121 -61 0
-122 447 448 124 0
-122 447 -448 123 0
122 -447 0
122 -448 -123 0
122 448 -124 0
-123 21 48 64 0
123 -21 0
123 -64 0
123 -48 0
-124 449 126 0
-124 22 125 126 0
124 -126 0
124 -449 -125 0
124 -449 -22 0
125 -391 -450 0
125 -390 450 0
-125 390 450 0
-125 391 -450 0
-126 390 -450 128 0
-126 450 127 128 0
126 -128 0
126 450 -127 0
126 -390 -450 0
-127 389 -449 0
-127 387 389 0
127 -389 0
127 -387 449 0
128 -388 449 0
128 -389 449 0
-128 -449 0
-128 388 389 0
129 -110 -130 0
129 -114 -130 0
129 104 -130 0
-129 130 0
-129 -104 110 114 0
-130 111 131 0
130 -111 0
130 -131 0
-131 106 115 0
131 -106 0
131 -115 0
132 -446 5 -137 0
132 446 5 -133 0
-132 -5 0
-132 -446 137 0
-132 446 133 0
-133 447 134 0
-133 -447 136 0
133 -447 -136 0
133 447 -134 0
-134 448 135 0
-134 -448 94 0
134 -448 -94 0
134 448 -135 0
-135 449 125 0
-135 -449 65 0
135 -449 -65 0
135 449 -125 0
136 448 -95 0
136 -448 -97 0
-136 -448 97 0
-136 448 95 0
137 447 -138 0
137 -447 -139 0
-137 -447 139 0
-137 447 138 0
138 -448 -89 0
138 448 -98 0
-138 448 98 0
-138 -448 89 0
139 448 -90 0
139 -448 -140 0
-139 -448 140 0
-139 448 90 0
140 -418 449 450 0
-140 418 0
-140 -450 0
-140 -449 0
-141 -390 142 0
-141 -389 154 0
-141 -389 -390 0
-141 142 154 0
141 390 -154 0
141 389 -142 0
142 143 -145 0
-142 -143 0
-142 145 0
143 103 -144 0
-143 -103 0
-143 144 0
144 447 -39 0
-144 -447 0
-144 39 0
145 146 -148 0
-145 -146 0
-145 148 0
146 103 -147 0
-146 -103 0
-146 147 0
147 447 -82 0
-147 -447 0
-147 82 0
148 149 -153 0
148 -387 -149 151 0
-148 149 153 0
-148 -149 -151 0
-148 387 -149 0
149 103 -150 0
-149 -103 0
-149 150 0
150 447 -56 0
-150 -447 0
-150 56 0
151 103 -152 0
-151 -103 0
-151 152 0
152 447 -91 0
-152 -447 0
-152 91 0
153 -389 151 0
153 -388 -151 0
-153 389 151 0
-153 388 -151 0
154 143 -155 0
-154 -143 0
-154 155 0
155 146 -156 0
-155 -146 0
-155 156 0
156 149 -157 0
156 -149 -158 0
-156 -149 158 0
-156 149 157 0
157 -390 151 0
157 -389 -151 0
-157 390 151 0
-157 389 -151 0
158 -388 151 0
158 -387 -151 0
-158 388 151 0
-158 387 -151 0
-159 160 161 177 180 0
159 -160 0
159 -180 0
159 -177 0
159 -161 0
160 -31 103 0
160 -52 103 0
160 -74 103 0
-160 -103 0
-160 31 52 74 0
-161 162 171 0
161 -162 0
161 -171 0
-162 163 169 0
162 -163 0
162 -169 0
163 446 5 -164 0
163 -446 5 -166 0
-163 -5 0
-163 -446 166 0
-163 446 164 0
164 -447 -112 0
164 447 -165 0
164 -447 -138 0
-164 447 165 0
-164 -447 112 138 0
-165 119 136 0
165 -119 0
165 -136 0
-166 167 168 0
166 -167 0
166 -168 0
167 447 -139 0
-167 -447 0
-167 139 0
168 447 -110 0
-168 -447 0
-168 110 0
169 446 5 -170 0
169 -446 5 -144 0
-169 -5 0
-169 -446 144 0
-169 446 170 0
170 447 -24 0
170 -447 -32 0
-170 -447 32 0
-170 447 24 0
-171 172 86 0
171 -172 0
171 -86 0
172 446 5 -173 0
172 -446 5 -174 0
-172 -5 0
-172 -446 174 0
-172 446 173 0
173 447 -120 0
173 -447 -131 0
-173 -447 131 0
-173 447 120 0
-174 175 176 0
174 -175 0
174 -176 0
175 447 -114 0
-175 -447 0
-175 114 0
176 447 -105 0
-176 -447 0
-176 105 0
-177 178 179 0
177 -178 0
177 -179 0
178 103 -137 0
-178 -103 0
-178 137 0
179 103 -176 0
-179 -103 0
-179 176 0
-180 181 185 0
180 -181 0
180 -185 0
-181 182 184 0
181 -182 0
181 -184 0
182 446 5 -183 0
182 -446 5 -152 0
-182 -5 0
-182 -446 152 0
-182 446 183 0
183 -447 -88 0
183 447 -96 0
-183 447 96 0
-183 -447 88 0
184 103 -168 0
184 103 -175 0
-184 -103 0
-184 168 175 0
-185 186 190 0
185 -186 0
185 -190 0
186 446 5 -187 0
186 -446 5 -189 0
-186 -5 0
-186 -446 189 0
-186 446 187 0
187 -447 -53 0
187 447 -188 0
187 -447 -75 0
-187 447 188 0
-187 -447 53 75 0
-188 49 67 0
188 -49 0
188 -67 0
-189 147 150 0
189 -147 0
189 -150 0
190 103 -167 0
-190 -103 0
-190 167 0
191 392 192 -193 198 0
-191 -392 0
-191 -198 0
-191 193 0
-191 -192 0
-192 171 180 0
192 -171 0
192 -180 0
193 143 -194 0
-193 -143 0
-193 194 0
194 146 -195 0
194 -146 -197 0
-194 -146 197 0
-194 146 195 0
195 -149 -157 0
195 149 -196 0
-195 149 196 0
-195 -149 157 0
196 -392 151 0
196 -391 -151 0
-196 392 151 0
-196 391 -151 0
197 149 -158 0
-197 -149 0
-197 158 0
-198 162 179 199 0
198 -162 0
198 -179 0
198 -199 0
-199 160 178 0
199 -160 0
199 -178 0
200 101 160 -201 206 0
-200 -206 0
-200 -101 0
-200 201 0
-200 -160 0
201 143 -202 0
-201 -143 0
-201 202 0
202 146 -203 0
202 -146 -205 0
-202 -146 205 0
-202 146 203 0
203 -149 -153 0
203 149 -204 0
-203 149 204 0
-203 -149 153 0
204 -391 151 0
204 -390 -151 0
-204 391 151 0
-204 390 -151 0
205 -387 149 151 0
-205 387 0
-205 -151 0
-205 -149 0
-206 391 161 207 209 0
206 -391 0
206 -209 0
206 -207 0
206 -161 0
-207 178 208 0
207 -178 0
207 -208 0
-208 179 190 0
208 -179 0
208 -190 0
-209 116 184 210 0
209 -116 0
209 -184 0
209 -210 0
-210 182 186 0
210 -182 0
210 -186 0
-211 -215 222 0
-211 -212 222 0
-211 216 222 0
211 -222 0
211 212 215 -216 0
-212 395 162 208 213 0
212 -395 0
212 -213 0
212 -208 0
212 -162 0
-213 199 214 0
213 -199 0
213 -214 0
-214 172 186 0
214 -172 0
214 -186 0
-215 100 181 0
215 -100 0
215 -181 0
216 143 -217 0
216 -143 -221 0
-216 -143 221 0
-216 143 217 0
217 -146 -203 0
217 146 -218 0
-217 146 218 0
-217 -146 203 0
218 149 -219 0
218 -149 -220 0
-218 -149 220 0
-218 149 219 0
219 -395 151 0
219 -394 -151 0
-219 395 151 0
-219 394 -151 0
220 -393 151 0
220 -392 -151 0
-220 393 151 0
-220 392 -151 0
221 146 -205 0
-221 -146 0
-221 205 0
-222 224 236 0
-222 -230 236 0
-222 -223 236 0
222 -236 0
222 223 -224 230 0
-223 117 207 0
223 -117 0
223 -207 0
224 143 -225 0
224 -143 -229 0
-224 -143 229 0
-224 143 225 0
225 -146 -195 0
225 146 -226 0
-225 146 226 0
-225 -146 195 0
226 149 -227 0
226 -149 -228 0
-226 -149 228 0
-226 149 227 0
227 -396 151 0
227 -395 -151 0
-227 396 151 0
-227 395 -151 0
228 -394 151 0
228 -393 -151 0
-228 394 151 0
-228 393 -151 0
229 146 -197 0
-229 -146 0
-229 197 0
-230 396 108 231 234 0
230 -396 0
230 -234 0
230 -231 0
230 -108 0
-231 172 232 0
231 -172 0
231 -232 0
-232 184 233 0
232 -184 0
232 -233 0
-233 102 210 0
233 -102 0
233 -210 0
-234 132 162 235 0
234 -235 0
234 -162 0
234 -132 0
-235 107 160 0
235 -107 0
235 -160 0
236 198 215 -241 0
236 198 215 -237 0
-236 -198 0
-236 -215 0
-236 237 241 0
237 393 172 185 -238 0
-237 -393 0
-237 238 0
-237 -185 0
-237 -172 0
238 143 -239 0
-238 -143 0
-238 239 0
239 -146 -148 0
239 146 -240 0
-239 146 240 0
-239 -146 148 0
240 -149 -204 0
240 149 -220 0
-240 149 220 0
-240 -149 204 0
241 394 190 214 -242 0
-241 -394 0
-241 242 0
-241 -214 0
-241 -190 0
242 143 -243 0
-242 -143 0
-242 243 0
243 -146 -156 0
243 146 -244 0
-243 146 244 0
-243 -146 156 0
244 -149 -196 0
244 149 -228 0
-244 149 228 0
-244 -149 196 0
-245 -246 308 0
-245 255 308 0
245 -308 0
245 246 -255 0
-246 132 247 250 0
246 -250 0
246 -247 0
246 -132 0
-247 248 249 0
247 -248 0
247 -249 0
-248 44 171 0
248 -44 0
248 -171 0
-249 4 58 117 0
249 -4 0
249 -117 0
249 -58 0
-250 162 251 253 254 0
250 -254 0
250 -162 0
250 -253 0
250 -251 0
-251 179 252 0
251 -179 0
251 -252 0
-252 109 235 0
252 -109 0
252 -235 0
-253 178 184 0
253 -178 0
253 -184 0
-254 113 233 0
254 -113 0
254 -233 0
255 -190 -305 0
255 190 -256 0
255 -190 -303 0
-255 190 256 0
-255 -190 303 305 0
-256 257 299 301 0
-256 -282 299 301 0
256 -301 0
256 -299 0
256 -257 282 0
-257 143 258 265 0
-257 -408 143 265 0
257 -265 0
257 -143 0
257 408 -258 0
258 146 -259 0
258 -146 -262 0
-258 -146 262 0
-258 146 259 0
259 149 -260 0
259 -149 -261 0
-259 -149 261 0
-259 149 260 0
260 -408 151 0
260 -407 -151 0
-260 408 151 0
-260 407 -151 0
261 -406 151 0
261 -405 -151 0
-261 406 151 0
-261 405 -151 0
262 149 -263 0
262 -149 -264 0
-262 -149 264 0
-262 149 263 0
263 -404 151 0
263 -403 -151 0
-263 404 151 0
-263 403 -151 0
264 -402 151 0
264 -401 -151 0
-264 402 151 0
-264 401 -151 0
-265 -409 273 0
-265 266 273 0
265 -273 0
265 409 -266 0
266 146 -267 0
266 -146 -270 0
-266 -146 270 0
-266 146 267 0
267 149 -268 0
267 -149 -269 0
-267 -149 269 0
-267 149 268 0
268 -409 151 0
268 -408 -151 0
-268 409 151 0
-268 408 -151 0
269 -407 151 0
269 -406 -151 0
-269 407 151 0
-269 406 -151 0
270 149 -271 0
270 -149 -272 0
-270 -149 272 0
-270 149 271 0
271 -405 151 0
271 -404 -151 0
-271 405 151 0
-271 404 -151 0
272 -403 151 0
272 -402 -151 0
-272 403 151 0
-272 402 -151 0
-273 -410 274 0
-273 -407 278 0
-273 -407 -410 0
-273 274 278 0
273 410 -278 0
273 407 -274 0
274 146 -275 0
274 -146 -276 0
-274 -146 276 0
-274 146 275 0
275 149 -269 0
275 -149 -271 0
-275 -149 271 0
-275 149 269 0
276 149 -272 0
276 -149 -277 0
-276 -149 277 0
-276 149 272 0
277 -401 151 0
277 -400 -151 0
-277 401 151 0
-277 400 -151 0
278 146 -279 0
278 -146 -281 0
-278 -146 281 0
-278 146 279 0
279 -149 -260 0
279 149 -280 0
-279 149 280 0
-279 -149 260 0
280 -410 151 0
280 -409 -151 0
-280 410 151 0
-280 409 -151 0
281 149 -261 0
281 -149 -263 0
-281 -149 263 0
-281 149 261 0
282 -408 -143 287 0
282 -143 283 287 0
-282 -287 0
-282 143 0
-282 408 -283 0
283 -146 -226 0
283 146 -284 0
-283 146 284 0
-283 -146 226 0
284 149 -285 0
284 -149 -286 0
-284 -149 286 0
-284 149 285 0
285 -400 151 0
285 -399 -151 0
-285 400 151 0
-285 399 -151 0
286 -398 151 0
286 -397 -151 0
-286 398 151 0
-286 397 -151 0
-287 -409 293 0
-287 288 293 0
287 -293 0
287 409 -288 0
288 146 -289 0
288 -146 -291 0
-288 -146 291 0
-288 146 289 0
289 149 -277 0
289 -149 -290 0
-289 -149 290 0
-289 149 277 0
290 -399 151 0
290 -398 -151 0
-290 399 151 0
-290 398 -151 0
291 -149 -219 0
291 149 -292 0
-291 149 292 0
-291 -149 219 0
292 -397 151 0
292 -396 -151 0
-292 397 151 0
-292 396 -151 0
-293 -410 294 0
-293 -407 296 0
-293 -407 -410 0
-293 294 296 0
293 410 -296 0
293 407 -294 0
294 -146 -218 0
294 146 -295 0
-294 146 295 0
-294 -146 218 0
295 149 -290 0
295 -149 -292 0
-295 -149 292 0
-295 149 290 0
296 146 -297 0
296 -146 -298 0
-296 -146 298 0
-296 146 297 0
297 149 -264 0
297 -149 -285 0
-297 -149 285 0
-297 149 264 0
298 -149 -227 0
298 149 -286 0
-298 149 286 0
-298 -149 227 0
299 404 143 -300 0
299 404 -143 -225 0
-299 -404 0
-299 -143 225 0
-299 143 300 0
300 146 -262 0
300 -146 -284 0
-300 -146 284 0
-300 146 262 0
301 403 143 -302 0
301 403 -143 -217 0
-301 -403 0
-301 -143 217 0
-301 143 302 0
302 146 -276 0
302 -146 -295 0
-302 -146 295 0
-302 146 276 0
-303 221 304 0
-303 -403 304 0
-303 -143 304 0
303 -304 0
303 403 143 -221 0
304 404 143 -229 0
-304 229 0
-304 -143 0
-304 -404 0
-305 193 306 307 0
-305 -408 306 307 0
305 -307 0
305 -306 0
305 408 -193 0
306 407 -201 0
-306 -407 0
-306 201 0
-307 -410 238 0
-307 -409 242 0
-307 -409 -410 0
-307 238 242 0
307 410 -242 0
307 409 -238 0
308 309 -311 0
308 309 -322 331 0
-308 -309 0
-308 311 -331 0
-308 311 322 0
-309 169 184 235 310 0
309 -169 0
309 -310 0
309 -235 0
309 -184 0
-310 108 177 0
310 -108 0
310 -177 0
311 413 132 -312 321 0
-311 -413 0
-311 -321 0
-311 312 0
-311 -132 0
312 190 247 -315 0
312 -190 247 -313 0
-312 -247 0
-312 -190 313 0
-312 190 315 0
313 -143 -145 0
313 143 -314 0
-313 143 314 0
-313 -143 145 0
314 -146 -240 0
314 146 -291 0
-314 146 291 0
-314 -146 240 0
315 143 -316 0
315 -143 -320 0
-315 -143 320 0
-315 143 316 0
316 -146 -267 0
316 146 -317 0
-316 146 317 0
-316 -146 267 0
317 149 -318 0
317 -149 -319 0
-317 -149 319 0
-317 149 318 0
318 -413 151 0
318 -412 -151 0
-318 413 151 0
-318 412 -151 0
319 -411 151 0
319 -410 -151 0
-319 411 151 0
-319 410 -151 0
320 146 -270 0
320 -146 -289 0
-320 -146 289 0
-320 146 270 0
-321 163 233 0
321 -163 0
321 -233 0
-322 -190 323 0
-322 190 324 328 0
322 190 -328 0
322 -190 -323 0
322 190 -324 0
-323 -412 216 0
-323 -411 224 0
-323 -411 -412 0
-323 216 224 0
323 412 -224 0
323 411 -216 0
324 412 -143 -300 0
324 412 143 -325 0
-324 -412 0
-324 -143 300 0
-324 143 325 0
-325 146 326 0
-325 -146 259 0
325 -146 -259 0
325 146 -326 0
326 -149 -280 0
326 149 -327 0
-326 149 327 0
-326 -149 280 0
327 -412 151 0
327 -411 -151 0
-327 412 151 0
-327 411 -151 0
328 411 -143 -302 0
328 411 143 -329 0
-328 -411 0
-328 -143 302 0
-328 143 329 0
-329 146 330 0
-329 -146 275 0
329 -146 -275 0
329 146 -330 0
330 -149 -268 0
330 149 -319 0
-330 149 319 0
-330 -149 268 0
-331 117 233 332 334 0
331 -117 0
331 -334 0
331 -332 0
331 -233 0
-332 58 333 0
332 -58 0
332 -333 0
-333 4 132 0
333 -4 0
333 -132 0
-334 163 248 0
334 -163 0
334 -248 0
-335 -117 355 0
-335 336 342 355 0
335 -355 0
335 117 -336 0
335 117 -342 0
336 132 232 -337 340 0
-336 -232 0
-336 337 0
-336 -132 0
-336 -340 0
-337 -401 338 0
-337 -402 339 0
-337 -401 -402 0
-337 338 339 0
337 401 -339 0
337 402 -338 0
338 -143 -243 0
338 143 -296 0
-338 143 296 0
-338 -143 243 0
339 -143 -239 0
339 143 -288 0
-339 143 288 0
-339 -143 239 0
-340 113 162 207 341 0
340 -113 0
340 -341 0
340 -207 0
340 -162 0
-341 3 171 252 0
341 -3 0
341 -171 0
341 -252 0
342 43 171 333 -343 0
-342 -333 0
-342 343 0
-342 -43 0
-342 -171 0
-343 -250 348 0
-343 -406 348 0
-343 344 348 0
343 -348 0
343 406 250 -344 0
-344 154 -190 0
-344 190 345 0
344 -154 -190 0
344 190 -345 0
345 -143 -346 0
345 143 -347 0
-345 143 347 0
-345 -143 346 0
346 -146 -244 0
346 146 -298 0
-346 146 298 0
-346 -146 244 0
347 146 -281 0
347 -146 -297 0
-347 -146 297 0
-347 146 281 0
348 -190 -349 354 0
348 190 -350 354 0
-348 -354 0
-348 -190 349 0
-348 190 350 0
349 -143 -155 0
349 143 -346 0
-349 143 346 0
-349 -143 155 0
350 -143 -347 0
350 143 -351 0
-350 143 351 0
-350 -143 347 0
351 -146 -279 0
351 146 -352 0
-351 146 352 0
-351 -146 279 0
352 -149 -327 0
352 149 -353 0
-352 149 353 0
-352 -149 327 0
353 -414 151 0
353 -413 -151 0
-353 414 151 0
-353 413 -151 0
-354 414 309 321 0
354 -321 0
354 -309 0
354 -414 0
-355 -246 356 365 0
-355 356 365 369 0
355 -356 0
355 -365 0
355 246 -369 0
-356 -359 361 0
-356 -360 361 0
-356 357 361 0
356 -361 0
356 -357 359 360 0
357 169 249 253 -358 0
-357 -169 0
-357 358 0
-357 -253 0
-357 -249 0
358 -142 -190 0
358 -143 190 0
358 190 -320 0
-358 142 -190 0
-358 143 190 320 0
-359 405 251 254 334 0
359 -405 0
359 -334 0
359 -254 0
359 -251 0
-360 132 143 0
-360 132 -314 0
360 -132 0
360 -143 314 0
361 102 209 340 -362 0
-361 -102 0
-361 362 0
-361 -340 0
-361 -209 0
-362 -400 363 0
-362 -399 364 0
-362 -399 -400 0
-362 363 364 0
362 400 -364 0
362 399 -363 0
363 -143 -202 0
363 143 -294 0
-363 143 294 0
-363 -143 202 0
364 -143 -194 0
364 143 -283 0
-364 143 283 0
-364 -143 194 0
365 223 248 252 -366 0
-365 366 0
-365 -223 0
-365 -252 0
-365 -248 0
366 -367 368 0
366 397 -313 368 0
-366 -368 0
-366 -397 367 0
-366 313 367 0
367 398 -349 0
-367 -398 0
-367 349 0
-368 113 162 232 332 0
368 -113 0
368 -332 0
368 -232 0
368 -162 0
-369 370 375 380 384 0
369 -384 0
369 -380 0
369 -370 0
369 -375 0
370 416 -190 -364 0
370 416 190 -371 0
-370 -416 0
-370 -190 364 0
-370 190 371 0
-371 -143 258 0
-371 143 372 0
371 -143 -258 0
371 143 -372 0
-372 -146 326 0
-372 146 373 0
372 -146 -326 0
372 146 -373 0
-373 149 374 0
-373 -149 353 0
373 -149 -353 0
373 149 -374 0
374 -416 151 0
374 -415 -151 0
-374 416 151 0
-374 415 -151 0
375 415 -190 -363 0
375 415 190 -376 0
-375 -415 0
-375 -190 363 0
-375 190 376 0
-376 -143 274 0
-376 143 377 0
376 -143 -274 0
376 143 -377 0
-377 -146 330 0
-377 146 378 0
377 -146 -330 0
377 146 -378 0
-378 149 379 0
-378 -149 318 0
378 -149 -318 0
378 149 -379 0
379 -415 151 0
379 -414 -151 0
-379 415 151 0
-379 414 -151 0
380 417 -190 -339 0
380 417 190 -381 0
-380 -417 0
-380 -190 339 0
-380 190 381 0
-381 -143 266 0
-381 143 382 0
381 -143 -266 0
381 143 -382 0
-382 -146 317 0
-382 146 383 0
382 -146 -317 0
382 146 -383 0
-383 149 151 0
-383 -149 379 0
-383 416 149 0
383 -149 -379 0
383 -416 149 -151 0
384 418 -190 -338 0
384 418 190 -385 0
-384 -418 0
-384 -190 338 0
-384 190 385 0
-385 -143 278 0
-385 143 386 0
385 -143 -278 0
385 143 -386 0
-386 -146 352 0
-386 146 149 0
-386 146 374 0
386 -146 -352 0
386 146 -149 -374 0
-451 0
2 0

